Q:[										
30000 30000 30000	30000	30000	50000	50000	50000 100000 100000					
]										
										
q:										
[										
0										
5000										
5000										
5000										
5000										
5000										
5000										
5000										
5000										
5000										
5000										
5000										
10000										
10000										
10000										
10000										
10000										
10000										
10000										
10000										
10000										
10000										
20000										
20000										
20000										
30000										
5000										
5000										
5000										
5000										
5000										
5000										
5000										
5000										
5000										
5000										
5000										
1000									
1000										
1000										
1000										
5000										
5000										
5000										
5000										
5000										
5000										
2000										
2000										
2000										
3000]										
										
L:										
[30000	30000	30000	30000	30000	25000	25000	25000	20000
30000	30000	30000	30000	30000	25000	25000	25000	20000
30000	30000	30000	30000	30000	25000	25000	25000	20000
30000	30000	30000	30000	30000	25000	25000	25000	20000
30000	30000	30000	30000	30000	50000	50000	50000	60000
30000	30000	30000	30000	30000	50000	50000	50000	60000
30000	30000	30000	30000	30000	50000	50000	50000	60000
30000	30000	30000	30000	30000	50000	50000	50000	60000
30000	30000	30000	30000	30000	50000	50000	50000	60000
30000	30000	30000	30000	30000	50000	50000	50000	60000
30000	30000	30000	30000	30000	50000	50000	50000	60000
30000	30000	30000	30000	30000	50000	50000	50000	60000
30000	30000	30000	30000	30000	50000	50000	50000	80000
30000	30000	30000	30000	30000	50000	50000	50000	80000
30000	30000	30000	30000	30000	50000	50000	50000	80000
30000	30000	30000	30000	30000	50000	50000	50000	80000
30000	30000	30000	30000	30000	50000	50000	50000	80000
30000	30000	30000	30000	30000	50000	50000	50000	100000
30000	30000	30000	30000	30000	50000	50000	50000	100000
30000	30000	30000	30000	30000	50000	50000	50000	100000
30000	30000	30000	30000	30000	50000	50000	50000	100000
30000	30000	30000	30000	30000	50000	50000	50000	100000
30000	30000	30000	30000	30000	50000	50000	50000	100000
30000	30000	30000	30000	30000	50000	50000	50000	100000
30000	30000	30000	30000	30000	50000	50000	50000	100000
30000	30000	30000	30000	30000	25000	25000	25000	20000
30000	30000	30000	30000	30000	25000	25000	25000	20000
30000	30000	30000	30000	30000	25000	25000	25000	20000
30000	30000	30000	30000	30000	25000	25000	25000	20000
30000	30000	30000	30000	30000	50000	50000	50000	60000
30000	30000	30000	30000	30000	50000	50000	50000	60000
30000	30000	30000	30000	30000	50000	50000	50000	60000
30000	30000	30000	30000	30000	50000	50000	50000	60000
30000	30000	30000	30000	30000	50000	50000	50000	60000
30000	30000	30000	30000	30000	50000	50000	50000	60000
30000	30000	30000	30000	30000	50000	50000	50000	60000
30000	30000	30000	30000	30000	50000	50000	50000	60000
30000	30000	30000	30000	30000	50000	50000	50000	80000
30000	30000	30000	30000	30000	50000	50000	50000	80000
30000	30000	30000	30000	30000	50000	50000	50000	80000
30000	30000	30000	30000	30000	50000	50000	50000	80000
30000	30000	30000	30000	30000	50000	50000	50000	80000
30000	30000	30000	30000	30000	50000	50000	50000	100000
30000	30000	30000	30000	30000	50000	50000	50000	100000
30000	30000	30000	30000	30000	50000	50000	50000	100000
30000	30000	30000	30000	30000	50000	50000	50000	100000
30000	30000	30000	30000	30000	50000	50000	50000	100000
30000	30000	30000	30000	30000	50000	50000	50000	100000
30000	30000	30000	30000	30000	50000	50000	50000	100000
30000	30000	30000	30000	30000	50000	50000	50000	100000		
]										
										
coord:										
[										
0	0									
63	73									
16	79									
97	70									
5	6									
47	26									
91	88									
52	38									
77	4									
12	81									
2	82									
72	47									
29	78									
46	88									
99	93									
16	99									
21	72									
34	52									
6	5									
45	68									
83	92									
41	30									
5	7									
31	6									
99	86									
17	89									
2	12									
22	34									
7	17									
54	23									
36	28									
76	98									
15	71									
31	56									
8	86									
87	89									
24	98									
22	12									
65	7									
58	88									
86	26									
7	98									
31	66									
99	77									
11	30									
4	5									
1	90									
99	11									
86	39									
83	30									
11	9]									
										
										
c:[1 1 1 1 1 1.3 1.3 1.3  2 2  ]									
									
									
r:[ 2	2	2	2	2	3	3	3	5	5
2	2	2	2	2	3	3	3	5	5
2	2	2	2	2	3	3	3	5	5
2	2	2	2	2	3	3	3	5	5
2	2	2	2	2	3	3	3	5	5
2	2	2	2	2	3	3	3	5	5
2	2	2	2	2	3	3	3	5	5
2	2	2	2	2	3	3	3	5	5
2	2	2	2	2	3	3	3	5	5
2	2	2	2	2	3	3	3	5	5
2	2	2	2	2	3	3	3	5	5
5	5	5	5	5	7	7	7	10	10
5	5	5	5	5	7	7	7	10	10
5	5	5	5	5	7	7	7	10	10
5	5	5	5	5	7	7	7	10	10
5	5	5	5	5	7	7	7	10	10
5	5	5	5	5	7	7	7	10	10
5	5	5	5	5	7	7	7	10	10
5	5	5	5	5	7	7	7	10	10
5	5	5	5	5	7	7	7	10	10
5	5	5	5	5	7	7	7	10	10
7	7	7	7	7	10	10	10	12	12
7	7	7	7	7	10	10	10	12	12
7	7	7	7	7	10	10	10	12	12
9	9	9	9	9	12	12	12	15	15
2	2	2	2	2	3	3	3	5	5
2	2	2	2	2	3	3	3	5	5
2	2	2	2	2	3	3	3	5	5
2	2	2	2	2	3	3	3	5	5
2	2	2	2	2	3	3	3	5	5
2	2	2	2	2	3	3	3	5	5
2	2	2	2	2	3	3	3	5	5
2	2	2	2	2	3	3	3	5	5
2	2	2	2	2	3	3	3	5	5
2	2	2	2	2	3	3	3	5	5
2	2	2	2	2	3	3	3	5	5
5	5	5	5	5	7	7	7	10	10
5	5	5	5	5	7	7	7	10	10
5	5	5	5	5	7	7	7	10	10
5	5	5	5	5	7	7	7	10	10
5	5	5	5	5	7	7	7	10	10
5	5	5	5	5	7	7	7	10	10
5	5	5	5	5	7	7	7	10	10
5	5	5	5	5	7	7	7	10	10
5	5	5	5	5	7	7	7	10	10
5	5	5	5	5	7	7	7	10	10
7	7	7	7	7	10	10	10	12	12
7	7	7	7	7	10	10	10	12	12
7	7	7	7	7	10	10	10	12	12
9	9	9	9	9	12	12	12	15	15
]									
									
